&CONTROL
calculation = 'relax' ,
restart_mode = 'restart' ,
outdir = './Ag_100' ,
pseudo_dir = '/home/ecastro/trabajo_final/pseudos/' ,
prefix = 'Ag_100' ,
max_seconds = 3550 ,
nstep = 500 ,
tstress = .true. ,
tprnfor = .true. ,
 /
&SYSTEM
ibrav = 0,
nat = 12,
ntyp = 1,
ecutwfc = 55 ,
ecutrho = 500 ,
occupations = 'smearing'
degauss = 0.03,
smearing = 'methfessel-paxton'
vdw_corr = 'DFT-D3' ,
dftd3_threebody = .false. ,
nosym = .true.,
/
&ELECTRONS
conv_thr = 1.0d-6 ,
mixing_beta = 0.3 ,
diagonalization = 'david' ,
electron_maxstep = 200
 /
&IONS
ion_dynamics = 'bfgs' 
 /
CELL_PARAMETERS angstrom
2.92229914 0.0 1.7893921439760313e-16
7.56084884778065e-16 4.70166181 2.8789375431449254e-16
0.0 0.0 33.49752156105289

ATOMIC_SPECIES
Ag  107.8682  Ag.pbe-n-rrkjus_psl.1.0.0.UPF

ATOMIC_POSITIONS (Angstrom)
Ag 0.7305747850000022 3.5262463574999994 23.49752156105289
Ag 2.1917243549999985 1.1754154525 22.653926463487085
Ag 2.1917243549999994 3.5262463574999994 20.966736268355476
Ag 0.7305747849999991 1.1754154525 20.123141170789665
Ag 0.7305747850000022 3.5262463574999994 18.43595097565806 0 0 0
Ag 2.1917243549999985 1.1754154525 17.592355878092253 0 0 0
Ag 2.191724355000001 3.5262463574999994 15.90516568296064 0 0 0
Ag 0.730574785000001 1.1754154525 15.061570585394833 0 0 0
Ag 0.7305747850000008 3.5262463574999994 13.374380390263221 0 0 0
Ag 2.1917243549999994 1.1754154525 12.530785292697416 0 0 0
Ag 2.191724355000002 3.5262463574999994 10.843595097565803 0 0 0
Ag 0.7305747850000005 1.1754154525 9.999999999999998 0 0 0

K_POINTS automatic
8 8 1   0 0 0