&CONTROL
calculation = 'relax' ,
restart_mode = 'restart' ,
outdir = './Ag_mp-124_100_bridge_0' ,
pseudo_dir = '/home/ecastro/trabajo_final/pseudos/' ,
prefix = 'Ag_mp-124_100_bridge_0' ,
max_seconds = 3550 ,
nstep = 500 ,
tstress = .true. ,
tprnfor = .true. ,
 /
&SYSTEM
ibrav = 0,
nat = 7,
ntyp = 2,
ecutwfc = 55 ,
ecutrho = 500 ,
occupations = 'smearing'
degauss = 0.03,
smearing = 'methfessel-paxton'
vdw_corr = 'DFT-D3' ,
dftd3_threebody = .false. ,
nosym = .true.,
/
&ELECTRONS
conv_thr = 1.0d-6 ,
mixing_beta = 0.3 ,
diagonalization = 'david' ,
electron_maxstep = 200
 /
&IONS
ion_dynamics = 'bfgs' 
 /
CELL_PARAMETERS angstrom
2.902218213791567 0.0 1.7770961229734957e-16
4.66712284390229e-16 2.902218213791567 1.7770961229734957e-16
0.0 0.0 30.26089089727563

ATOMIC_SPECIES
Li  6.9410  Li.pbe-s-rrkjus_psl.1.0.0.UPF
Ag  107.8682  Ag.pbe-n-rrkjus_psl.1.0.0.UPF

ATOMIC_POSITIONS (Angstrom)
Ag            2.1766636603        0.7255545534       12.0521781795
Ag            0.7255545534        2.1766636603       10.0000000000
Ag            2.1766636603        0.7255545534       16.1565345384
Ag            0.7255545534        2.1766636603       14.1043563589
Ag            2.1766620241        0.7255514688       20.2408250377
Ag            0.7255575664        2.1766761333       18.1877056188
Li 2.1766620241000005 2.1766605756957804 22.240825037699995

K_POINTS automatic
8 8 1   0 0 0
