&CONTROL
calculation = 'relax' ,
restart_mode = 'restart' ,
outdir = './Ag_110' ,
pseudo_dir = '/home/ecastro/trabajo_final/pseudos/' ,
prefix = 'Ag_110' ,
max_seconds = 3550 ,
nstep = 500 ,
tstress = .true. ,
tprnfor = .true. ,
 /
&SYSTEM
ibrav = 0,
nat = 6,
ntyp = 1,
ecutwfc = 55 ,
ecutrho = 500 ,
occupations = 'smearing'
degauss = 0.03,
smearing = 'methfessel-paxton'
vdw_corr = 'DFT-D3' ,
dftd3_threebody = .false. ,
nosym = .true.,
/
&ELECTRONS
conv_thr = 1.0d-6 ,
mixing_beta = 0.3 ,
diagonalization = 'david' ,
electron_maxstep = 200
 /
&IONS
ion_dynamics = 'bfgs' 
 /
CELL_PARAMETERS angstrom
2.9022182137915666 0.0 1.7770961229734955e-16
6.600308423107907e-16 4.104356358910253 2.513193438749763e-16
0.0 0.0 27.25554553447892

ATOMIC_SPECIES
Ag  107.8682  Ag.pbe-n-rrkjus_psl.1.0.0.UPF

ATOMIC_POSITIONS (Angstrom)
Ag 2.1766636603436775 3.0782672691826907 15.804436427583134
Ag 0.7255545534478913 1.0260890897275632 17.255545534478916
Ag 2.1766636603436758 3.0782672691826902 12.902218213791569 0 0 0
Ag 0.7255545534478913 1.0260890897275632 14.353327320687352 0 0 0
Ag 2.176663660343672 3.0782672691826902 10.0 0 0 0
Ag 0.7255545534478928 1.0260890897275632 11.451109106895784 0 0 0

K_POINTS automatic
8 8 1   0 0 0