&CONTROL
calculation = 'relax' ,
restart_mode = 'restart' ,
outdir = './Ag_110' ,
pseudo_dir = '/home/ecastro/trabajo_final/pseudos/' ,
prefix = 'Ag_110' ,
max_seconds = 3550 ,
nstep = 500 ,
tstress = .true. ,
tprnfor = .true. ,
 /
&SYSTEM
ibrav = 0,
nat = 12,
ntyp = 1,
ecutwfc = 55 ,
ecutrho = 500 ,
occupations = 'smearing'
degauss = 0.03,
smearing = 'methfessel-paxton'
vdw_corr = 'DFT-D3' ,
dftd3_threebody = .false. ,
nosym = .true.,
/
&ELECTRONS
conv_thr = 1.0d-6 ,
mixing_beta = 0.3 ,
diagonalization = 'david' ,
electron_maxstep = 200
 /
&IONS
ion_dynamics = 'bfgs' 
 /
CELL_PARAMETERS angstrom
4.70166181 0.0 2.8789375431449254e-16
8.112080955642478e-16 5.044441701802824 -0.4160585392067486
0.0 0.0 27.489053705721467

ATOMIC_SPECIES
Ag  107.8682  Ag.pbe-n-rrkjus_psl.1.0.0.UPF

ATOMIC_POSITIONS (Angstrom)
Ag 1.1754154525000005 1.1410046706458747 17.31569598105199
Ag 3.5262463575000003 4.5039658051810925 17.038323621580826
Ag 1.1754154525000011 3.5431197667424583 15.651461824224988
Ag 3.5262463574999994 1.8616391994748518 15.790148003960573
Ag 1.1754154525000005 0.9007931610362173 14.403286206604754 0 0 0
Ag 3.5262463575000003 4.263754295571435 14.125913847133587 0 0 0
Ag 1.1754154525000007 3.302908257132801 12.73905204977776 0 0 0
Ag 3.5262463575 1.6214276898651985 12.877738229513342 0 0 0
Ag 1.1754154525000005 0.6605816514265621 11.490876432157515 0 0 0
Ag 3.5262463574999994 4.023542785961782 11.21350407268635 0 0 0
Ag 1.1754154525000007 3.0626967475231432 9.826642275330522 0 0 0
Ag 3.5262463575 1.3812161802555367 9.965328455066105 0 0 0

K_POINTS automatic
8 8 1   0 0 0