&CONTROL
calculation = 'relax' ,
restart_mode = 'restart' ,
outdir = './Ag_111' ,
pseudo_dir = '/home/ecastro/trabajo_final/pseudos/' ,
prefix = 'Ag_111' ,
max_seconds = 3550 ,
nstep = 500 ,
tstress = .true. ,
tprnfor = .true. ,
 /
&SYSTEM
ibrav = 0,
nat = 12,
ntyp = 1,
ecutwfc = 55 ,
ecutrho = 500 ,
occupations = 'smearing'
degauss = 0.03,
smearing = 'methfessel-paxton'
vdw_corr = 'DFT-D3' ,
dftd3_threebody = .false. ,
nosym = .true.,
/
&ELECTRONS
conv_thr = 1.0d-6 ,
mixing_beta = 0.3 ,
diagonalization = 'david' ,
electron_maxstep = 200
 /
&IONS
ion_dynamics = 'bfgs' 
 /
CELL_PARAMETERS angstrom
5.045905434089498 0.0 -0.39791348451678465
2.521426921653079 4.923434284112318 -0.21830521763736446
0.0 0.0 27.58384142517247

ATOMIC_SPECIES
Ag  107.8682  Ag.pbe-n-rrkjus_psl.1.0.0.UPF

ATOMIC_POSITIONS (Angstrom)
Ag 5.767275461250032 2.5152327321008574 17.176253702966196
Ag 2.349188265759506 0.26757795022349534 16.75485499909584
Ag 3.134496469951896 2.94335745245845 15.98251324941585
Ag 4.762314708550864 0.695702670581089 15.1632010610287
Ag 5.547622912743251 3.3714821728160436 14.390859311348715 0 0 0
Ag 2.129535717252722 1.1238273909386816 13.96946060747835 0 0 0
Ag 2.914843921445107 3.799606893173636 13.197118857798358 0 0 0
Ag 4.542662160044082 1.5519521112962753 12.37780666941121 0 0 0
Ag 5.3279703642364655 4.227731613531229 11.605464919731226 0 0 0
Ag 1.9098831687459357 1.980076831653868 11.184066215860861 0 0 0
Ag 2.69519137293832 4.6558563338888215 10.411724466180877 0 0 0
Ag 4.323009611537289 2.40820155201146 9.592412277793729 0 0 0

K_POINTS automatic
8 8 1   0 0 0